
Gurobi 6.5.2 (win64) logging started 08/12/16 04:22:45

Optimize a model with 241 rows, 177 columns and 763 nonzeros
Coefficient statistics:
  Matrix range    [1e+00, 1e+00]
  Objective range [1e+01, 3e+03]
  Bounds range    [1e+00, 1e+00]
  RHS range       [1e+00, 1e+00]
Found heuristic solution: objective 0
Variable types: 0 continuous, 177 integer (177 binary)

Root relaxation: objective -2.647399e+03, 66 iterations, 0.00 seconds

    Nodes    |    Current Node    |     Objective Bounds      |     Work
 Expl Unexpl |  Obj  Depth IntInf | Incumbent    BestBd   Gap | It/Node Time

*    0     0               0    -2647.398687 -2647.3987  0.00%     -    0s

Explored 0 nodes (66 simplex iterations) in 0.01 seconds
Thread count was 12 (of 12 available processors)

Optimal solution found (tolerance 1.00e-04)
Best objective -2.647398687424e+03, best bound -2.647398687424e+03, gap 0.0%
Obj: -2647.398687424131